p tw 109 118
1 2
2 22
3 13
4 5
5 6
6 11
7 8
8 9
9 10
10 11
11 12
13 14
14 15
15 16
16 17
17 18
18 19
18 21
19 20
20 11
21 23
22 33
23 24
24 25
25 26
26 27
27 28
28 29
29 30
29 34
30 31
31 32
32 11
33 44
34 35
35 36
36 37
37 38
38 39
39 40
40 41
41 42
42 43
42 47
43 45
44 55
45 46
46 11
47 48
48 49
49 50
50 51
51 52
52 53
53 54
54 56
55 66
56 57
57 58
58 59
59 60
60 61
61 62
62 63
63 64
64 65
65 67
66 77
67 68
68 69
68 73
69 70
70 71
71 72
72 11
73 74
74 75
75 76
75 87
76 78
77 88
78 79
78 83
79 80
80 81
81 82
82 11
83 84
84 85
85 86
86 11
87 89
88 99
89 90
90 91
91 92
91 96
92 93
93 94
94 95
95 11
96 97
97 98
98 100
99 3
100 101
101 102
101 50
102 103
103 104
104 105
104 7
105 106
106 107
107 108
107 7
108 109
109 4
